; benchmark generated from python API
(set-info :status unknown)
(declare-fun x_epoch () Int)
(declare-fun x_shift_period_868754_epoch () Int)
(declare-fun x_year () Int)
(declare-fun x_month () Int)
(declare-fun x_day () Int)
(declare-fun x_shift_period_868754_year () Int)
(declare-fun x_shift_period_868754_month () Int)
(declare-fun x_shift_period_868754_day () Int)
(assert
 (>= x_epoch (- 36584)))
(assert
 (<= x_epoch 36829))
(assert
 (>= x_epoch 7303))
(assert
 (<= x_epoch 7305))
(assert
 (>= x_shift_period_868754_epoch (- 36584)))
(assert
 (<= x_shift_period_868754_epoch 36829))
(assert
 (let (($x3195 (<= x_year 2100)))
 (let (($x3177 (>= x_year 1900)))
 (let (($x2872 (= x_month 11)))
 (let (($x815 (= x_month 9)))
 (let (($x3917 (= x_month 6)))
 (let (($x376 (= x_month 4)))
 (let ((?x2278 (ite (or $x376 $x3917 $x815 $x2872) 30 31)))
 (let (($x3245 (= (mod x_year 4) 0)))
 (let (($x1838 (= (mod x_year 100) 0)))
 (let (($x1098 (= (mod x_year 400) 0)))
 (let (($x1123 (ite $x1098 true (ite $x1838 false $x3245))))
 (let (($x2885 (= x_month 2)))
 (let (($x4162 (>= x_day 1)))
 (let (($x4286 (<= x_month 12)))
 (let (($x948 (>= x_month 1)))
 (and $x948 $x4286 $x4162 (<= x_day (ite $x2885 (ite $x1123 29 28) ?x2278)) $x3177 $x3195)))))))))))))))))
(assert
 (let (($x29 (or (and (= (mod 2000 4) 0) (and (distinct (mod 2000 100) 0) true)) (= (mod 2000 400) 0))))
 (let ((?x36 (ite (= 3 2) (ite $x29 31 31) (ite (= 3 1) (ite $x29 0 0) 0))))
 (let ((?x40 (ite $x29 60 59)))
 (let ((?x41 (ite (= 3 3) ?x40 ?x36)))
 (let ((?x46 (ite (= 3 4) (ite $x29 91 90) ?x41)))
 (let ((?x52 (ite (= 3 5) (ite $x29 121 120) ?x46)))
 (let ((?x58 (ite (= 3 6) (ite $x29 152 151) ?x52)))
 (let ((?x64 (ite (= 3 7) (ite $x29 182 181) ?x58)))
 (let ((?x70 (ite (= 3 8) (ite $x29 213 212) ?x64)))
 (let ((?x76 (ite (= 3 9) (ite $x29 244 243) ?x70)))
 (let ((?x82 (ite (= 3 10) (ite $x29 274 273) ?x76)))
 (let ((?x88 (ite (= 3 11) (ite $x29 305 304) ?x82)))
 (let ((?x16 (- (+ (* 365 (- 2000 1)) (div (- 2000 1) 4)) (div (- 2000 1) 100))))
 (let ((?x95 (+ (+ ?x16 (div (- 2000 1) 400)) (ite (= 3 12) (ite $x29 335 334) ?x88))))
 (let ((?x97 (+ ?x95 (- 1 1))))
 (let (($x3245 (= (mod x_year 4) 0)))
 (let (($x1838 (= (mod x_year 100) 0)))
 (let (($x1098 (= (mod x_year 400) 0)))
 (let (($x1123 (ite $x1098 true (ite $x1838 false $x3245))))
 (let ((?x293 (ite (= 2 x_month) (ite $x1123 31 31) (ite (= 1 x_month) (ite $x1123 0 0) 0))))
 (let ((?x2351 (ite (= 4 x_month) (ite $x1123 91 90) (ite (= 3 x_month) (ite $x1123 60 59) ?x293))))
 (let ((?x897 (ite (= 6 x_month) (ite $x1123 152 151) (ite (= 5 x_month) (ite $x1123 121 120) ?x2351))))
 (let ((?x2575 (ite (= 8 x_month) (ite $x1123 213 212) (ite (= 7 x_month) (ite $x1123 182 181) ?x897))))
 (let ((?x2065 (ite (= 10 x_month) (ite $x1123 274 273) (ite (= 9 x_month) (ite $x1123 244 243) ?x2575))))
 (let ((?x2109 (ite (= 12 x_month) (ite $x1123 335 334) (ite (= 11 x_month) (ite $x1123 305 304) ?x2065))))
 (let ((?x545 (- (+ (* 365 (- x_year 1)) (div (- x_year 1) 4)) (div (- x_year 1) 100))))
 (let ((?x1789 (+ (+ (+ ?x545 (div (- x_year 1) 400)) ?x2109) (- x_day 1))))
 (= x_epoch (- ?x1789 ?x97))))))))))))))))))))))))))))))
(assert
 (let (($x795 (<= x_shift_period_868754_year 2100)))
 (let (($x2711 (>= x_shift_period_868754_year 1900)))
 (let (($x2145 (= x_shift_period_868754_month 11)))
 (let (($x1209 (= x_shift_period_868754_month 9)))
 (let (($x3274 (= x_shift_period_868754_month 6)))
 (let (($x3219 (= x_shift_period_868754_month 4)))
 (let ((?x3291 (ite (or $x3219 $x3274 $x1209 $x2145) 30 31)))
 (let (($x1776 (= (mod x_shift_period_868754_year 4) 0)))
 (let (($x581 (= (mod x_shift_period_868754_year 100) 0)))
 (let (($x3277 (= (mod x_shift_period_868754_year 400) 0)))
 (let (($x1558 (ite $x3277 true (ite $x581 false $x1776))))
 (let (($x1408 (= x_shift_period_868754_month 2)))
 (let (($x2683 (>= x_shift_period_868754_day 1)))
 (let (($x145 (<= x_shift_period_868754_month 12)))
 (let (($x3488 (>= x_shift_period_868754_month 1)))
 (and $x3488 $x145 $x2683 (<= x_shift_period_868754_day (ite $x1408 (ite $x1558 29 28) ?x3291)) $x2711 $x795)))))))))))))))))
(assert
 (let (($x29 (or (and (= (mod 2000 4) 0) (and (distinct (mod 2000 100) 0) true)) (= (mod 2000 400) 0))))
 (let ((?x36 (ite (= 3 2) (ite $x29 31 31) (ite (= 3 1) (ite $x29 0 0) 0))))
 (let ((?x40 (ite $x29 60 59)))
 (let ((?x41 (ite (= 3 3) ?x40 ?x36)))
 (let ((?x46 (ite (= 3 4) (ite $x29 91 90) ?x41)))
 (let ((?x52 (ite (= 3 5) (ite $x29 121 120) ?x46)))
 (let ((?x58 (ite (= 3 6) (ite $x29 152 151) ?x52)))
 (let ((?x64 (ite (= 3 7) (ite $x29 182 181) ?x58)))
 (let ((?x70 (ite (= 3 8) (ite $x29 213 212) ?x64)))
 (let ((?x76 (ite (= 3 9) (ite $x29 244 243) ?x70)))
 (let ((?x82 (ite (= 3 10) (ite $x29 274 273) ?x76)))
 (let ((?x88 (ite (= 3 11) (ite $x29 305 304) ?x82)))
 (let ((?x16 (- (+ (* 365 (- 2000 1)) (div (- 2000 1) 4)) (div (- 2000 1) 100))))
 (let ((?x95 (+ (+ ?x16 (div (- 2000 1) 400)) (ite (= 3 12) (ite $x29 335 334) ?x88))))
 (let ((?x97 (+ ?x95 (- 1 1))))
 (let (($x1776 (= (mod x_shift_period_868754_year 4) 0)))
 (let (($x581 (= (mod x_shift_period_868754_year 100) 0)))
 (let (($x3277 (= (mod x_shift_period_868754_year 400) 0)))
 (let (($x1558 (ite $x3277 true (ite $x581 false $x1776))))
 (let ((?x983 (ite (= 1 x_shift_period_868754_month) (ite $x1558 0 0) 0)))
 (let ((?x1021 (ite (= 3 x_shift_period_868754_month) (ite $x1558 60 59) (ite (= 2 x_shift_period_868754_month) (ite $x1558 31 31) ?x983))))
 (let ((?x3508 (ite (= 5 x_shift_period_868754_month) (ite $x1558 121 120) (ite (= 4 x_shift_period_868754_month) (ite $x1558 91 90) ?x1021))))
 (let ((?x966 (ite (= 7 x_shift_period_868754_month) (ite $x1558 182 181) (ite (= 6 x_shift_period_868754_month) (ite $x1558 152 151) ?x3508))))
 (let ((?x2800 (ite (= 9 x_shift_period_868754_month) (ite $x1558 244 243) (ite (= 8 x_shift_period_868754_month) (ite $x1558 213 212) ?x966))))
 (let ((?x103 (ite (= 11 x_shift_period_868754_month) (ite $x1558 305 304) (ite (= 10 x_shift_period_868754_month) (ite $x1558 274 273) ?x2800))))
 (let ((?x1285 (+ (* 365 (- x_shift_period_868754_year 1)) (div (- x_shift_period_868754_year 1) 4))))
 (let ((?x3735 (+ (- ?x1285 (div (- x_shift_period_868754_year 1) 100)) (div (- x_shift_period_868754_year 1) 400))))
 (let ((?x782 (+ ?x3735 (ite (= 12 x_shift_period_868754_month) (ite $x1558 335 334) ?x103))))
 (= x_shift_period_868754_epoch (- (+ ?x782 (- x_shift_period_868754_day 1)) ?x97)))))))))))))))))))))))))))))))
(assert
 (= x_shift_period_868754_epoch (+ x_epoch 1)))
(assert
 (= x_shift_period_868754_epoch 7305))
(check-sat)
